Optimal - objective value -88.00000000
      0 sv_addi0                     5                      -1
      1 sv_addi1                     6                      -1
      3 sv_addi3                     5                      -1
      4 sv_addi4                     6                      -1
      9 sv_cmpi0                     1                      -1
     10 sv_cmpi1                     4                      -1
     11 sv_cond_br10                 4                      -1
     12 sv_cond_br11                 7                      -1
     13 sv_cond_br12                 4                      -1
     14 sv_cond_br13                 4                      -1
     15 sv_cond_br14                 7                      -1
     16 sv_cond_br15                 4                      -1
     17 sv_cond_br2                  1                      -1
     18 sv_cond_br3                  7                      -1
     19 sv_cond_br4                  1                      -1
     20 sv_cond_br5                  1                      -1
     21 sv_cond_br6                  1                      -1
     22 sv_cond_br7                  7                      -1
     23 sv_cond_br8                  1                      -1
     24 sv_cond_br9                  1                      -1
     53 sv_muli0                     1                      -1
     54 sv_muli1                     1                      -1
     55 sv_muli2                     1                      -1
     56 sv_muli3                     1                      -1
     66 sv_return1                   7                      -1
